c generated by sgen
p cnf 73 156
-2 -3 -4 0
-1 -3 -4 0
-1 -2 -4 0
-1 -2 -3 0
-6 -7 -8 0
-5 -7 -8 0
-5 -6 -8 0
-5 -6 -7 0
-10 -11 -12 0
-9 -11 -12 0
-9 -10 -12 0
-9 -10 -11 0
-14 -15 -16 0
-13 -15 -16 0
-13 -14 -16 0
-13 -14 -15 0
-18 -19 -20 0
-17 -19 -20 0
-17 -18 -20 0
-17 -18 -19 0
-22 -23 -24 0
-21 -23 -24 0
-21 -22 -24 0
-21 -22 -23 0
-26 -27 -28 0
-25 -27 -28 0
-25 -26 -28 0
-25 -26 -27 0
-30 -31 -32 0
-29 -31 -32 0
-29 -30 -32 0
-29 -30 -31 0
-34 -35 -36 0
-33 -35 -36 0
-33 -34 -36 0
-33 -34 -35 0
-38 -39 -40 0
-37 -39 -40 0
-37 -38 -40 0
-37 -38 -39 0
-42 -43 -44 0
-41 -43 -44 0
-41 -42 -44 0
-41 -42 -43 0
-46 -47 -48 0
-45 -47 -48 0
-45 -46 -48 0
-45 -46 -47 0
-50 -51 -52 0
-49 -51 -52 0
-49 -50 -52 0
-49 -50 -51 0
-54 -55 -56 0
-53 -55 -56 0
-53 -54 -56 0
-53 -54 -55 0
-58 -59 -60 0
-57 -59 -60 0
-57 -58 -60 0
-57 -58 -59 0
-62 -63 -64 0
-61 -63 -64 0
-61 -62 -64 0
-61 -62 -63 0
-66 -67 -68 0
-65 -67 -68 0
-65 -66 -68 0
-65 -66 -67 0
-69 -70 -71 0
-69 -70 -72 0
-69 -70 -73 0
-69 -71 -72 0
-69 -71 -73 0
-69 -72 -73 0
-70 -71 -72 0
-70 -71 -73 0
-70 -72 -73 0
-71 -72 -73 0
38 42 63 0
32 42 63 0
32 38 63 0
32 38 42 0
70 17 40 0
26 17 40 0
26 70 40 0
26 70 17 0
2 72 67 0
59 72 67 0
59 2 67 0
59 2 72 0
4 61 19 0
7 61 19 0
7 4 19 0
7 4 61 0
62 12 46 0
69 12 46 0
69 62 46 0
69 62 12 0
71 30 8 0
56 30 8 0
56 71 8 0
56 71 30 0
21 6 11 0
49 6 11 0
49 21 11 0
49 21 6 0
27 52 41 0
53 52 41 0
53 27 41 0
53 27 52 0
14 68 64 0
50 68 64 0
50 14 64 0
50 14 68 0
57 28 33 0
9 28 33 0
9 57 33 0
9 57 28 0
15 60 47 0
37 60 47 0
37 15 47 0
37 15 60 0
13 29 24 0
58 29 24 0
58 13 24 0
58 13 29 0
22 48 44 0
65 48 44 0
65 22 44 0
65 22 48 0
36 16 43 0
5 16 43 0
5 36 43 0
5 36 16 0
66 10 54 0
18 10 54 0
18 66 54 0
18 66 10 0
20 35 73 0
51 35 73 0
51 20 73 0
51 20 35 0
45 1 25 0
31 1 25 0
31 45 25 0
31 45 1 0
3 55 39 0
3 55 23 0
3 55 34 0
3 39 23 0
3 39 34 0
3 23 34 0
55 39 23 0
55 39 34 0
55 23 34 0
39 23 34 0
